158
1000
394
500
14
612
269
283
507
150
148
351
300
426
746
391
258
322
110
147
49
24
10
343
231
201
199
259
275
577
78
319
53
355
95
58
632
94
129
101
186
13
410
617
326
590
545
275
18
609
258
96
163
220
206
523
262
410
236
143
55
481
142
336
24
119
497
381
67
437
99
145
335
257
233
193
37
301
294
8
350
398
747
10
500
1
533
527
372
239
48
191
220
442
290
309
385
388
405
368
185
97
286
127
649
78
349
6
112
589
399
552
59
176
340
479
354
297
557
577
596
322
370
192
138
50
99
273
366
214
634
331
569
141
316
307
648
292
606
330
419
23
134
46
449
367
161
423
282
241
242
225
148
359
74
341
283
247
40
154
